NAME : problems/40-tsp/instance-1.tsp
COMMENT : No Comment
TYPE : TSP
DIMENSION: 40
EDGE_WEIGHT_TYPE : EUC_2D
NODE_COORD_SECTION
1 9314 7637 
2 484 4857 
3 5356 2603 
4 3115 1653 
5 2031 8748 
6 3277 9217 
7 4718 7333 
8 6342 2357 
9 4488 819 
10 7443 7394 
11 2074 1605 
12 1000 7090 
13 3807 2777 
14 2369 2634 
15 5073 2541 
16 3970 6501 
17 7555 3898 
18 731 7388 
19 1321 8954 
20 2809 5803 
21 3469 8695 
22 2844 6449 
23 4872 7051 
24 9717 5860 
25 1868 6952 
26 4408 6900 
27 2548 4558 
28 6092 9730 
29 8408 5332 
30 4603 7028 
31 2209 9111 
32 1172 5598 
33 1663 5996 
34 5964 4722 
35 1540 9114 
36 283 7601 
37 4999 9008 
38 1295 8046 
39 9389 6079 
40 5308 8230 
EOF
